\* Source Pyomo model name=unknown *\

min 
x91:
+5 x1
+15 x10
+15 x11
+15 x12
+30 x13
+30 x14
+30 x15
+30 x16
+30 x17
+30 x18
+5 x2
+5 x3
+5 x4
+5 x5
+800 x55
+800 x56
+800 x57
+800 x58
+800 x59
+5 x6
+800 x60
+500 x61
+500 x62
+500 x63
+500 x64
+500 x65
+500 x66
+250 x67
+250 x68
+250 x69
+15 x7
+250 x70
+250 x71
+250 x72
+15 x8
+15 x9

s.t.

c_e_x92_:
+1 x1
+1 x13
+1 x7
= 240

c_e_x93_:
+1 x14
+1 x2
+1 x8
= 250

c_e_x94_:
+1 x15
+1 x3
+1 x9
= 200

c_e_x95_:
+1 x10
+1 x16
+1 x4
= 170

c_e_x96_:
+1 x11
+1 x17
+1 x5
= 230

c_e_x97_:
+1 x12
+1 x18
+1 x6
= 190

c_l_x98_:
+1 x19
+1 x25
+1 x31
>= 240

c_l_x99_:
+1 x20
+1 x26
+1 x32
>= 260

c_l_x100_:
+1 x21
+1 x27
+1 x33
>= 210

c_l_x101_:
+1 x22
+1 x28
+1 x34
>= 180

c_l_x102_:
+1 x23
+1 x29
+1 x35
>= 240

c_l_x103_:
+1 x24
+1 x30
+1 x36
>= 200

c_e_x104_:
-1 x37
+1 x55
-1 x73
= -1

c_e_x105_:
+1 x37
-1 x38
+1 x56
-1 x74
= 0

c_e_x106_:
+1 x38
-1 x39
+1 x57
-1 x75
= 0

c_e_x107_:
+1 x39
-1 x40
+1 x58
-1 x76
= 0

c_e_x108_:
+1 x40
-1 x41
+1 x59
-1 x77
= 0

c_e_x109_:
+1 x41
-1 x42
+1 x60
-1 x78
= 0

c_e_x110_:
-1 x43
+1 x61
-1 x79
= 0

c_e_x111_:
+1 x43
-1 x44
+1 x62
-1 x80
= 0

c_e_x112_:
+1 x44
-1 x45
+1 x63
-1 x81
= 0

c_e_x113_:
+1 x45
-1 x46
+1 x64
-1 x82
= 0

c_e_x114_:
+1 x46
-1 x47
+1 x65
-1 x83
= 0

c_e_x115_:
+1 x47
-1 x48
+1 x66
-1 x84
= 0

c_e_x116_:
-1 x49
+1 x67
-1 x85
= 0

c_e_x117_:
+1 x49
-1 x50
+1 x68
-1 x86
= 0

c_e_x118_:
+1 x50
-1 x51
+1 x69
-1 x87
= 0

c_e_x119_:
+1 x51
-1 x52
+1 x70
-1 x88
= 0

c_e_x120_:
+1 x52
-1 x53
+1 x71
-1 x89
= 0

c_e_x121_:
+1 x53
-1 x54
+1 x72
-1 x90
= 0

c_u_x122_:
+1 x1
-100 x55
<= 170

c_u_x123_:
-1 x1
+1 x2
-50 x37
-100 x56
<= 0

c_u_x124_:
-1 x2
+1 x3
-50 x38
-100 x57
<= 0

c_u_x125_:
-1 x3
-50 x39
+1 x4
-100 x58
<= 0

c_u_x126_:
-1 x4
-50 x40
+1 x5
-100 x59
<= 0

c_u_x127_:
-50 x41
-1 x5
+1 x6
-100 x60
<= 0

c_u_x128_:
-70 x61
+1 x7
<= 0

c_u_x129_:
-60 x43
-70 x62
-1 x7
+1 x8
<= 0

c_u_x130_:
-60 x44
-70 x63
-1 x8
+1 x9
<= 0

c_u_x131_:
+1 x10
-60 x45
-70 x64
-1 x9
<= 0

c_u_x132_:
-1 x10
+1 x11
-60 x46
-70 x65
<= 0

c_u_x133_:
-1 x11
+1 x12
-60 x47
-70 x66
<= 0

c_u_x134_:
+1 x13
-40 x67
<= 0

c_u_x135_:
-1 x13
+1 x14
-70 x49
-40 x68
<= 0

c_u_x136_:
-1 x14
+1 x15
-70 x50
-40 x69
<= 0

c_u_x137_:
-1 x15
+1 x16
-70 x51
-40 x70
<= 0

c_u_x138_:
-1 x16
+1 x17
-70 x52
-40 x71
<= 0

c_u_x139_:
-1 x17
+1 x18
-70 x53
-40 x72
<= 0

c_u_x140_:
-1 x1
-30 x37
-80 x73
<= -120

c_u_x141_:
+1 x1
-1 x2
-30 x38
-80 x74
<= 0

c_u_x142_:
+1 x2
-1 x3
-30 x39
-80 x75
<= 0

c_u_x143_:
+1 x3
-1 x4
-30 x40
-80 x76
<= 0

c_u_x144_:
+1 x4
-30 x41
-1 x5
-80 x77
<= 0

c_u_x145_:
-30 x42
+1 x5
-1 x6
-80 x78
<= 0

c_u_x146_:
-40 x43
-1 x7
-50 x79
<= 0

c_u_x147_:
-40 x44
+1 x7
-1 x8
-50 x80
<= 0

c_u_x148_:
-40 x45
+1 x8
-50 x81
-1 x9
<= 0

c_u_x149_:
-1 x10
-40 x46
-50 x82
+1 x9
<= 0

c_u_x150_:
+1 x10
-1 x11
-40 x47
-50 x83
<= 0

c_u_x151_:
+1 x11
-1 x12
-40 x48
-50 x84
<= 0

c_u_x152_:
-1 x13
-50 x49
-30 x85
<= 0

c_u_x153_:
+1 x13
-1 x14
-50 x50
-30 x86
<= 0

c_u_x154_:
+1 x14
-1 x15
-50 x51
-30 x87
<= 0

c_u_x155_:
+1 x15
-1 x16
-50 x52
-30 x88
<= 0

c_u_x156_:
+1 x16
-1 x17
-50 x53
-30 x89
<= 0

c_u_x157_:
+1 x17
-1 x18
-50 x54
-30 x90
<= 0

c_u_x158_:
-1 x39
+1 x55
+1 x56
<= 0

c_u_x159_:
-1 x40
+1 x56
+1 x57
<= 0

c_u_x160_:
-1 x41
+1 x57
+1 x58
<= 0

c_u_x161_:
-1 x42
+1 x58
+1 x59
<= 0

c_l_x162_:
+1 x43
>= 0

c_u_x163_:
-1 x44
+1 x61
<= 0

c_u_x164_:
-1 x45
+1 x62
<= 0

c_u_x165_:
-1 x46
+1 x63
<= 0

c_u_x166_:
-1 x47
+1 x64
<= 0

c_u_x167_:
-1 x48
+1 x65
<= 0

c_l_x168_:
+1 x49
>= 0

c_l_x169_:
+1 x50
>= 0

c_l_x170_:
+1 x51
>= 0

c_l_x171_:
+1 x52
>= 0

c_l_x172_:
+1 x53
>= 0

c_l_x173_:
+1 x54
>= 0

c_u_x174_:
+1 x37
<= 1

c_u_x175_:
+1 x38
+1 x73
<= 1

c_u_x176_:
+1 x39
+1 x74
<= 1

c_u_x177_:
+1 x40
+1 x75
<= 1

c_u_x178_:
+1 x41
+1 x76
<= 1

c_u_x179_:
+1 x42
+1 x77
<= 1

c_u_x180_:
+1 x43
<= 1

c_u_x181_:
+1 x44
+1 x79
<= 1

c_u_x182_:
+1 x45
+1 x80
<= 1

c_u_x183_:
+1 x46
+1 x81
<= 1

c_u_x184_:
+1 x47
+1 x82
<= 1

c_u_x185_:
+1 x48
+1 x83
<= 1

c_u_x186_:
+1 x49
<= 1

c_u_x187_:
+1 x50
+1 x85
<= 1

c_u_x188_:
+1 x51
+1 x86
<= 1

c_u_x189_:
+1 x52
+1 x87
<= 1

c_u_x190_:
+1 x53
+1 x88
<= 1

c_u_x191_:
+1 x54
+1 x89
<= 1

c_u_x192_:
-1 x1
+80 x37
<= 0

c_u_x193_:
-1 x2
+80 x38
<= 0

c_u_x194_:
-1 x3
+80 x39
<= 0

c_u_x195_:
-1 x4
+80 x40
<= 0

c_u_x196_:
+80 x41
-1 x5
<= 0

c_u_x197_:
+80 x42
-1 x6
<= 0

c_u_x198_:
+50 x43
-1 x7
<= 0

c_u_x199_:
+50 x44
-1 x8
<= 0

c_u_x200_:
+50 x45
-1 x9
<= 0

c_u_x201_:
-1 x10
+50 x46
<= 0

c_u_x202_:
-1 x11
+50 x47
<= 0

c_u_x203_:
-1 x12
+50 x48
<= 0

c_u_x204_:
-1 x13
+30 x49
<= 0

c_u_x205_:
-1 x14
+30 x50
<= 0

c_u_x206_:
-1 x15
+30 x51
<= 0

c_u_x207_:
-1 x16
+30 x52
<= 0

c_u_x208_:
-1 x17
+30 x53
<= 0

c_u_x209_:
-1 x18
+30 x54
<= 0

c_u_x210_:
+1 x1
-1 x19
<= 0

c_u_x211_:
+1 x2
-1 x20
<= 0

c_u_x212_:
-1 x21
+1 x3
<= 0

c_u_x213_:
-1 x22
+1 x4
<= 0

c_u_x214_:
-1 x23
+1 x5
<= 0

c_u_x215_:
-1 x24
+1 x6
<= 0

c_u_x216_:
-1 x25
+1 x7
<= 0

c_u_x217_:
-1 x26
+1 x8
<= 0

c_u_x218_:
-1 x27
+1 x9
<= 0

c_u_x219_:
+1 x10
-1 x28
<= 0

c_u_x220_:
+1 x11
-1 x29
<= 0

c_u_x221_:
+1 x12
-1 x30
<= 0

c_u_x222_:
+1 x13
-1 x31
<= 0

c_u_x223_:
+1 x14
-1 x32
<= 0

c_u_x224_:
+1 x15
-1 x33
<= 0

c_u_x225_:
+1 x16
-1 x34
<= 0

c_u_x226_:
+1 x17
-1 x35
<= 0

c_u_x227_:
+1 x18
-1 x36
<= 0

c_u_x228_:
+1 x19
-300 x37
<= 0

c_u_x229_:
+1 x20
-300 x38
<= 0

c_u_x230_:
+1 x21
-300 x39
<= 0

c_u_x231_:
+1 x22
-300 x40
<= 0

c_u_x232_:
+1 x23
-300 x41
<= 0

c_u_x233_:
+1 x24
-300 x42
<= 0

c_u_x234_:
+1 x25
-200 x43
<= 0

c_u_x235_:
+1 x26
-200 x44
<= 0

c_u_x236_:
+1 x27
-200 x45
<= 0

c_u_x237_:
+1 x28
-200 x46
<= 0

c_u_x238_:
+1 x29
-200 x47
<= 0

c_u_x239_:
+1 x30
-200 x48
<= 0

c_u_x240_:
+1 x31
-100 x49
<= 0

c_u_x241_:
+1 x32
-100 x50
<= 0

c_u_x242_:
+1 x33
-100 x51
<= 0

c_u_x243_:
+1 x34
-100 x52
<= 0

c_u_x244_:
+1 x35
-100 x53
<= 0

c_u_x245_:
+1 x36
-100 x54
<= 0

c_u_x246_:
+1 x19
-100 x55
<= 170

c_u_x247_:
-1 x1
+1 x20
-50 x37
-100 x56
<= 0

c_u_x248_:
-1 x2
+1 x21
-50 x38
-100 x57
<= 0

c_u_x249_:
+1 x22
-1 x3
-50 x39
-100 x58
<= 0

c_u_x250_:
+1 x23
-1 x4
-50 x40
-100 x59
<= 0

c_u_x251_:
+1 x24
-50 x41
-1 x5
-100 x60
<= 0

c_u_x252_:
+1 x25
-70 x61
<= 0

c_u_x253_:
+1 x26
-60 x43
-70 x62
-1 x7
<= 0

c_u_x254_:
+1 x27
-60 x44
-70 x63
-1 x8
<= 0

c_u_x255_:
+1 x28
-60 x45
-70 x64
-1 x9
<= 0

c_u_x256_:
-1 x10
+1 x29
-60 x46
-70 x65
<= 0

c_u_x257_:
-1 x11
+1 x30
-60 x47
-70 x66
<= 0

c_u_x258_:
+1 x31
-40 x67
<= 0

c_u_x259_:
-1 x13
+1 x32
-70 x49
-40 x68
<= 0

c_u_x260_:
-1 x14
+1 x33
-70 x50
-40 x69
<= 0

c_u_x261_:
-1 x15
+1 x34
-70 x51
-40 x70
<= 0

c_u_x262_:
-1 x16
+1 x35
-70 x52
-40 x71
<= 0

c_u_x263_:
-1 x17
+1 x36
-70 x53
-40 x72
<= 0

c_u_x264_:
+1 x19
-300 x37
+220 x74
<= 0

c_u_x265_:
+1 x20
-300 x38
+220 x75
<= 0

c_u_x266_:
+1 x21
-300 x39
+220 x76
<= 0

c_u_x267_:
+1 x22
-300 x40
+220 x77
<= 0

c_u_x268_:
+1 x23
-300 x41
+220 x78
<= 0

c_u_x269_:
+1 x25
-200 x43
+150 x80
<= 0

c_u_x270_:
+1 x26
-200 x44
+150 x81
<= 0

c_u_x271_:
+1 x27
-200 x45
+150 x82
<= 0

c_u_x272_:
+1 x28
-200 x46
+150 x83
<= 0

c_u_x273_:
+1 x29
-200 x47
+150 x84
<= 0

c_u_x274_:
+1 x31
-100 x49
+70 x86
<= 0

c_u_x275_:
+1 x32
-100 x50
+70 x87
<= 0

c_u_x276_:
+1 x33
-100 x51
+70 x88
<= 0

c_u_x277_:
+1 x34
-100 x52
+70 x89
<= 0

c_u_x278_:
+1 x35
-100 x53
+70 x90
<= 0

c_e_ONE_VAR_CONSTANT: 
ONE_VAR_CONSTANT = 1.0

bounds
   0 <= x1 <= 99999
   0 <= x2 <= 99999
   0 <= x3 <= 99999
   0 <= x4 <= 99999
   0 <= x5 <= 99999
   0 <= x6 <= 99999
   0 <= x7 <= 99999
   0 <= x8 <= 99999
   0 <= x9 <= 99999
   0 <= x10 <= 99999
   0 <= x11 <= 99999
   0 <= x12 <= 99999
   0 <= x13 <= 99999
   0 <= x14 <= 99999
   0 <= x15 <= 99999
   0 <= x16 <= 99999
   0 <= x17 <= 99999
   0 <= x18 <= 99999
   0 <= x19 <= 99999
   0 <= x20 <= 99999
   0 <= x21 <= 99999
   0 <= x22 <= 99999
   0 <= x23 <= 99999
   0 <= x24 <= 99999
   0 <= x25 <= 99999
   0 <= x26 <= 99999
   0 <= x27 <= 99999
   0 <= x28 <= 99999
   0 <= x29 <= 99999
   0 <= x30 <= 99999
   0 <= x31 <= 99999
   0 <= x32 <= 99999
   0 <= x33 <= 99999
   0 <= x34 <= 99999
   0 <= x35 <= 99999
   0 <= x36 <= 99999
   0 <= x37 <= 1
   0 <= x38 <= 1
   0 <= x39 <= 1
   0 <= x40 <= 1
   0 <= x41 <= 1
   0 <= x42 <= 1
   0 <= x43 <= 1
   0 <= x44 <= 1
   0 <= x45 <= 1
   0 <= x46 <= 1
   0 <= x47 <= 1
   0 <= x48 <= 1
   0 <= x49 <= 1
   0 <= x50 <= 1
   0 <= x51 <= 1
   0 <= x52 <= 1
   0 <= x53 <= 1
   0 <= x54 <= 1
   0 <= x55 <= 1
   0 <= x56 <= 1
   0 <= x57 <= 1
   0 <= x58 <= 1
   0 <= x59 <= 1
   0 <= x60 <= 1
   0 <= x61 <= 1
   0 <= x62 <= 1
   0 <= x63 <= 1
   0 <= x64 <= 1
   0 <= x65 <= 1
   0 <= x66 <= 1
   0 <= x67 <= 1
   0 <= x68 <= 1
   0 <= x69 <= 1
   0 <= x70 <= 1
   0 <= x71 <= 1
   0 <= x72 <= 1
   0 <= x73 <= 1
   0 <= x74 <= 1
   0 <= x75 <= 1
   0 <= x76 <= 1
   0 <= x77 <= 1
   0 <= x78 <= 1
   0 <= x79 <= 1
   0 <= x80 <= 1
   0 <= x81 <= 1
   0 <= x82 <= 1
   0 <= x83 <= 1
   0 <= x84 <= 1
   0 <= x85 <= 1
   0 <= x86 <= 1
   0 <= x87 <= 1
   0 <= x88 <= 1
   0 <= x89 <= 1
   0 <= x90 <= 1
binary
  x37
  x38
  x39
  x40
  x41
  x42
  x43
  x44
  x45
  x46
  x47
  x48
  x49
  x50
  x51
  x52
  x53
  x54
  x55
  x56
  x57
  x58
  x59
  x60
  x61
  x62
  x63
  x64
  x65
  x66
  x67
  x68
  x69
  x70
  x71
  x72
  x73
  x74
  x75
  x76
  x77
  x78
  x79
  x80
  x81
  x82
  x83
  x84
  x85
  x86
  x87
  x88
  x89
  x90
end
